
Gurobi 8.1.1 (win64, Python) logging started 09/20/19 16:30:32

Academic license - for non-commercial use only

Gurobi 8.1.1 (win64, Python) logging started 09/20/19 16:56:53

Academic license - for non-commercial use only

Gurobi 8.1.1 (win64, Python) logging started 09/23/19 13:41:49

Academic license - for non-commercial use only

Gurobi 8.1.1 (win64, Python) logging started 12/06/19 14:52:43

Academic license - for non-commercial use only
